language Essence 1.3

letting blksize_delta be
        function(1 --> 10, 2 --> 10, 3 --> 10, 4 --> 10, 5 --> 10, 6 --> 10, 7 --> 10, 8 --> 10, 9 --> 10, 10 --> 10,
                 11 --> 10, 12 --> 10, 13 --> 10, 14 --> 10, 15 --> 10, 16 --> 10, 17 --> 10, 18 --> 10, 19 --> 10,
                 20 --> 10, 21 --> 10, 22 --> 10, 23 --> 10, 24 --> 10, 25 --> 10, 26 --> 10, 27 --> 10, 28 --> 10,
                 29 --> 10, 30 --> 10, 31 --> 10, 32 --> 10, 33 --> 10, 34 --> 10, 35 --> 10, 36 --> 10, 37 --> 10,
                 38 --> 10, 39 --> 10, 40 --> 10, 41 --> 10, 42 --> 10, 43 --> 10, 44 --> 10, 45 --> 10, 46 --> 10,
                 47 --> 10, 48 --> 10, 49 --> 10, 50 --> 10, 51 --> 10, 52 --> 10)
letting maxcars be
        function(1 --> 9, 2 --> 8, 3 --> 8, 4 --> 8, 5 --> 8, 6 --> 8, 7 --> 8, 8 --> 8, 9 --> 8, 10 --> 8, 11 --> 8,
                 12 --> 8, 13 --> 8, 14 --> 10, 15 --> 8, 16 --> 8, 17 --> 8, 18 --> 8, 19 --> 8, 20 --> 8, 21 --> 8,
                 22 --> 8, 23 --> 8, 24 --> 8, 25 --> 8, 26 --> 8, 27 --> 8, 28 --> 8, 29 --> 8, 30 --> 8, 31 --> 9,
                 32 --> 8, 33 --> 8, 34 --> 8, 35 --> 8, 36 --> 8, 37 --> 10, 38 --> 8, 39 --> 8, 40 --> 8, 41 --> 8,
                 42 --> 8, 43 --> 8, 44 --> 8, 45 --> 8, 46 --> 8, 47 --> 8, 48 --> 8, 49 --> 8, 50 --> 9, 51 --> 8,
                 52 --> 8)
letting n_cars be 161
letting n_classes be 17
letting n_options be 52
letting quantity be
        function(1 --> 11, 2 --> 9, 3 --> 11, 4 --> 9, 5 --> 9, 6 --> 9, 7 --> 11, 8 --> 11, 9 --> 9, 10 --> 9,
                 11 --> 9, 12 --> 9, 13 --> 9, 14 --> 9, 15 --> 9, 16 --> 9, 17 --> 9)
letting usage be
        relation((1, 6), (1, 15), (1, 43), (1, 46), (1, 51), (2, 16), (2, 23), (2, 24), (2, 43), (2, 48), (3, 6),
                 (3, 9), (3, 27), (4, 8), (4, 10), (4, 21), (4, 41), (5, 52), (6, 32), (6, 35), (6, 36), (6, 39),
                 (6, 40), (6, 50), (7, 1), (7, 5), (7, 14), (7, 18), (7, 19), (7, 25), (7, 26), (7, 33), (7, 38),
                 (7, 47), (7, 49), (7, 52), (8, 4), (8, 16), (8, 21), (8, 31), (8, 35), (8, 49), (8, 52), (9, 12),
                 (9, 14), (9, 41), (10, 10), (10, 22), (10, 40), (10, 45), (10, 46), (11, 23), (11, 24), (11, 28),
                 (12, 6), (12, 7), (12, 11), (12, 29), (12, 34), (12, 37), (12, 40), (13, 3), (13, 8), (13, 23),
                 (13, 36), (13, 42), (13, 50), (14, 52), (15, 2), (15, 13), (15, 21), (15, 22), (15, 30), (15, 31),
                 (15, 36), (15, 50), (16, 14), (16, 20), (16, 24), (16, 42), (17, 10), (17, 17), (17, 44), (17, 49),
                 (17, 52))
$ Visualisation for usage
$  1  6
$  1 15
$  1 43
$  1 46
$  1 51
$  2 16
$  2 23
$  2 24
$  2 43
$  2 48
$  3  6
$  3  9
$  3 27
$  4  8
$  4 10
$  4 21
$  4 41
$  5 52
$  6 32
$  6 35
$  6 36
$  6 39
$  6 40
$  6 50
$  7  1
$  7  5
$  7 14
$  7 18
$  7 19
$  7 25
$  7 26
$  7 33
$  7 38
$  7 47
$  7 49
$  7 52
$  8  4
$  8 16
$  8 21
$  8 31
$  8 35
$  8 49
$  8 52
$  9 12
$  9 14
$  9 41
$ 10 10
$ 10 22
$ 10 40
$ 10 45
$ 10 46
$ 11 23
$ 11 24
$ 11 28
$ 12  6
$ 12  7
$ 12 11
$ 12 29
$ 12 34
$ 12 37
$ 12 40
$ 13  3
$ 13  8
$ 13 23
$ 13 36
$ 13 42
$ 13 50
$ 14 52
$ 15  2
$ 15 13
$ 15 21
$ 15 22
$ 15 30
$ 15 31
$ 15 36
$ 15 50
$ 16 14
$ 16 20
$ 16 24
$ 16 42
$ 17 10
$ 17 17
$ 17 44
$ 17 49
$ 17 52

